(set-info :smt-lib-version 2.6)
(set-logic QF_LRA)
(set-info :source |
Specification and verification of a 8N1 decoder.
Geoffrey Brown, Indiana University <geobrown@cs.indiana.edu>
Lee Pike, Galois Connections, Inc. <leepike@galois.com> 

Translated into CVC format by Leonardo de Moura.

This benchmark was automatically translated into SMT-LIB format from
CVC format using CVC Lite



|)
(set-info :category "industrial")
(set-info :status unsat)
(declare-fun x_0 () Real)
(declare-fun x_1 () Real)
(declare-fun x_2 () Real)
(declare-fun x_3 () Real)
(declare-fun x_4 () Bool)
(declare-fun x_5 () Real)
(declare-fun x_6 () Real)
(declare-fun x_7 () Real)
(declare-fun x_8 () Real)
(declare-fun x_9 () Real)
(declare-fun x_10 () Bool)
(declare-fun x_11 () Real)
(declare-fun x_12 () Bool)
(declare-fun x_13 () Real)
(declare-fun x_14 () Bool)
(declare-fun x_15 () Real)
(declare-fun x_16 () Bool)
(declare-fun x_17 () Real)
(declare-fun x_18 () Bool)
(declare-fun x_19 () Real)
(declare-fun x_20 () Bool)
(declare-fun x_21 () Real)
(declare-fun x_22 () Bool)
(declare-fun x_23 () Real)
(declare-fun x_24 () Bool)
(declare-fun x_25 () Real)
(declare-fun x_26 () Real)
(declare-fun x_27 () Real)
(declare-fun x_28 () Real)
(declare-fun x_29 () Real)
(declare-fun x_30 () Real)
(declare-fun x_31 () Real)
(declare-fun x_32 () Real)
(declare-fun x_33 () Real)
(declare-fun x_34 () Real)
(declare-fun x_35 () Real)
(declare-fun x_36 () Real)
(declare-fun x_37 () Real)
(declare-fun x_38 () Real)
(declare-fun x_39 () Real)
(declare-fun x_40 () Real)
(declare-fun x_41 () Real)
(declare-fun x_42 () Real)
(declare-fun x_43 () Real)
(declare-fun x_44 () Real)
(declare-fun x_45 () Real)
(declare-fun x_46 () Real)
(declare-fun x_47 () Real)
(declare-fun x_48 () Real)
(declare-fun x_49 () Real)
(declare-fun x_50 () Real)
(declare-fun x_51 () Real)
(declare-fun x_52 () Real)
(declare-fun x_53 () Real)
(declare-fun x_54 () Real)
(declare-fun x_55 () Real)
(declare-fun x_56 () Real)
(declare-fun x_57 () Real)
(declare-fun x_58 () Real)
(declare-fun x_59 () Real)
(declare-fun x_60 () Real)
(declare-fun x_61 () Real)
(declare-fun x_62 () Real)
(declare-fun x_63 () Real)
(declare-fun x_64 () Real)
(declare-fun x_65 () Real)
(declare-fun x_66 () Real)
(declare-fun x_67 () Real)
(declare-fun x_68 () Real)
(declare-fun x_69 () Real)
(declare-fun x_70 () Real)
(declare-fun x_71 () Real)
(declare-fun x_72 () Real)
(declare-fun x_73 () Real)
(declare-fun x_74 () Real)
(declare-fun x_75 () Real)
(declare-fun x_76 () Real)
(declare-fun x_77 () Real)
(declare-fun x_78 () Real)
(declare-fun x_79 () Real)
(declare-fun x_80 () Real)
(declare-fun x_81 () Real)
(declare-fun x_82 () Real)
(declare-fun x_83 () Real)
(declare-fun x_84 () Real)
(declare-fun x_85 () Real)
(declare-fun x_86 () Real)
(declare-fun x_87 () Real)
(declare-fun x_88 () Real)
(declare-fun x_89 () Real)
(declare-fun x_90 () Real)
(declare-fun x_91 () Real)
(declare-fun x_92 () Real)
(declare-fun x_93 () Real)
(declare-fun x_94 () Real)
(declare-fun x_95 () Real)
(declare-fun x_96 () Real)
(declare-fun x_97 () Real)
(declare-fun x_98 () Real)
(declare-fun x_99 () Real)
(declare-fun x_100 () Real)
(declare-fun x_101 () Real)
(declare-fun x_102 () Real)
(declare-fun x_103 () Real)
(declare-fun x_104 () Real)
(declare-fun x_105 () Real)
(declare-fun x_106 () Real)
(declare-fun x_107 () Real)
(declare-fun x_108 () Real)
(declare-fun x_109 () Real)
(declare-fun x_110 () Real)
(declare-fun x_111 () Real)
(declare-fun x_112 () Real)
(declare-fun x_113 () Real)
(declare-fun x_114 () Real)
(declare-fun x_115 () Real)
(declare-fun x_116 () Real)
(declare-fun x_117 () Real)
(declare-fun x_118 () Real)
(declare-fun x_119 () Real)
(declare-fun x_120 () Real)
(declare-fun x_121 () Real)
(declare-fun x_122 () Real)
(declare-fun x_123 () Real)
(declare-fun x_124 () Real)
(declare-fun x_125 () Real)
(declare-fun x_126 () Real)
(declare-fun x_127 () Real)
(declare-fun x_128 () Real)
(declare-fun x_129 () Real)
(declare-fun x_130 () Real)
(declare-fun x_131 () Real)
(declare-fun x_132 () Real)
(declare-fun x_133 () Real)
(declare-fun x_134 () Real)
(declare-fun x_135 () Real)
(declare-fun x_136 () Real)
(declare-fun x_137 () Real)
(declare-fun x_138 () Real)
(declare-fun x_139 () Real)
(declare-fun x_140 () Real)
(declare-fun x_141 () Real)
(declare-fun x_142 () Real)
(declare-fun x_143 () Real)
(declare-fun x_144 () Real)
(declare-fun x_145 () Real)
(declare-fun x_146 () Real)
(declare-fun x_147 () Real)
(assert (let ((?v_15 (not x_22))) (let ((?v_17 (and ?v_15 (< x_23 8))) (?v_56 (not x_20))) (let ((?v_58 (and ?v_56 (< x_21 8))) (?v_94 (not x_18))) (let ((?v_96 (and ?v_94 (< x_19 8))) (?v_132 (not x_16))) (let ((?v_134 (and ?v_132 (< x_17 8))) (?v_170 (not x_14))) (let ((?v_172 (and ?v_170 (< x_15 8))) (?v_208 (not x_12))) (let ((?v_210 (and ?v_208 (< x_13 8))) (?v_246 (not x_10))) (let ((?v_248 (and ?v_246 (< x_11 8))) (?v_284 (not x_4))) (let ((?v_287 (and ?v_284 (< x_8 8))) (?v_272 (= x_1 10)) (?v_277 (= x_26 1)) (?v_279 (= x_10 x_4)) (?v_280 (= x_27 x_5)) (?v_281 (= x_28 x_29)) (?v_283 (= x_30 x_7)) (?v_288 (= x_8 9)) (?v_289 (= x_28 1)) (?v_275 (= x_7 1))) (let ((?v_290 (not ?v_275)) (?v_291 (not (= x_7 0))) (?v_292 (= x_7 3)) (?v_293 (= x_7 2)) (?v_282 (= x_11 x_8)) (?v_273 (= x_32 x_33)) (?v_295 (= x_26 x_0)) (?v_274 (= x_34 x_1)) (?v_296 (= x_35 x_2)) (?v_298 (< x_1 9)) (?v_297 (= x_9 2)) (?v_301 (= x_8 x_1)) (?v_309 (not (= x_33 x_29))) (?v_304 (= x_36 1)) (?v_236 (= x_34 10)) (?v_238 (= x_43 1)) (?v_240 (= x_12 x_10)) (?v_241 (= x_44 x_27)) (?v_245 (= x_31 x_27)) (?v_242 (= x_45 x_28)) (?v_244 (= x_46 x_30)) (?v_249 (= x_11 9)) (?v_250 (= x_45 1)) (?v_251 (not (= x_30 1))) (?v_252 (not (= x_30 0))) (?v_253 (= x_30 3)) (?v_254 (= x_30 2)) (?v_243 (= x_13 x_11)) (?v_255 (= x_47 x_31)) (?v_234 (= x_48 x_32)) (?v_256 (= x_43 x_26)) (?v_235 (= x_49 x_34)) (?v_257 (= x_50 x_35)) (?v_258 (< x_34 9)) (?v_260 (= x_36 2)) (?v_259 (= x_31 x_35)) (?v_264 (= x_27 x_31))) (let ((?v_266 (not ?v_264)) (?v_262 (= x_11 x_34)) (?v_270 (not (= x_32 x_28))) (?v_265 (= x_51 1)) (?v_198 (= x_49 10)) (?v_200 (= x_58 1)) (?v_202 (= x_14 x_12)) (?v_203 (= x_59 x_44)) (?v_207 (= x_47 x_44)) (?v_204 (= x_60 x_45)) (?v_206 (= x_61 x_46)) (?v_211 (= x_13 9)) (?v_212 (= x_60 1)) (?v_213 (not (= x_46 1))) (?v_214 (not (= x_46 0))) (?v_215 (= x_46 3)) (?v_216 (= x_46 2)) (?v_205 (= x_15 x_13)) (?v_217 (= x_62 x_47)) (?v_196 (= x_63 x_48)) (?v_218 (= x_58 x_43)) (?v_197 (= x_64 x_49)) (?v_219 (= x_65 x_50)) (?v_220 (< x_49 9)) (?v_222 (= x_51 2)) (?v_221 (= x_47 x_50)) (?v_226 (= x_44 x_47))) (let ((?v_228 (not ?v_226)) (?v_224 (= x_13 x_49)) (?v_232 (not (= x_48 x_45))) (?v_227 (= x_66 1)) (?v_160 (= x_64 10)) (?v_162 (= x_73 1)) (?v_164 (= x_16 x_14)) (?v_165 (= x_74 x_59)) (?v_169 (= x_62 x_59)) (?v_166 (= x_75 x_60)) (?v_168 (= x_76 x_61)) (?v_173 (= x_15 9)) (?v_174 (= x_75 1)) (?v_175 (not (= x_61 1))) (?v_176 (not (= x_61 0))) (?v_177 (= x_61 3)) (?v_178 (= x_61 2)) (?v_167 (= x_17 x_15)) (?v_179 (= x_77 x_62)) (?v_158 (= x_78 x_63)) (?v_180 (= x_73 x_58)) (?v_159 (= x_79 x_64)) (?v_181 (= x_80 x_65)) (?v_182 (< x_64 9)) (?v_184 (= x_66 2)) (?v_183 (= x_62 x_65)) (?v_188 (= x_59 x_62))) (let ((?v_190 (not ?v_188)) (?v_186 (= x_15 x_64)) (?v_194 (not (= x_63 x_60))) (?v_189 (= x_81 1)) (?v_122 (= x_79 10)) (?v_124 (= x_88 1)) (?v_126 (= x_18 x_16)) (?v_127 (= x_89 x_74)) (?v_131 (= x_77 x_74)) (?v_128 (= x_90 x_75)) (?v_130 (= x_91 x_76)) (?v_135 (= x_17 9)) (?v_136 (= x_90 1)) (?v_137 (not (= x_76 1))) (?v_138 (not (= x_76 0))) (?v_139 (= x_76 3)) (?v_140 (= x_76 2)) (?v_129 (= x_19 x_17)) (?v_141 (= x_92 x_77)) (?v_120 (= x_93 x_78)) (?v_142 (= x_88 x_73)) (?v_121 (= x_94 x_79)) (?v_143 (= x_95 x_80)) (?v_144 (< x_79 9)) (?v_146 (= x_81 2)) (?v_145 (= x_77 x_80)) (?v_150 (= x_74 x_77))) (let ((?v_152 (not ?v_150)) (?v_148 (= x_17 x_79)) (?v_156 (not (= x_78 x_75))) (?v_151 (= x_96 1)) (?v_84 (= x_94 10)) (?v_86 (= x_103 1)) (?v_88 (= x_20 x_18)) (?v_89 (= x_104 x_89)) (?v_93 (= x_92 x_89)) (?v_90 (= x_105 x_90)) (?v_92 (= x_106 x_91)) (?v_97 (= x_19 9)) (?v_98 (= x_105 1)) (?v_99 (not (= x_91 1))) (?v_100 (not (= x_91 0))) (?v_101 (= x_91 3)) (?v_102 (= x_91 2)) (?v_91 (= x_21 x_19)) (?v_103 (= x_107 x_92)) (?v_82 (= x_108 x_93)) (?v_104 (= x_103 x_88)) (?v_83 (= x_109 x_94)) (?v_105 (= x_110 x_95)) (?v_106 (< x_94 9)) (?v_108 (= x_96 2)) (?v_107 (= x_92 x_95)) (?v_112 (= x_89 x_92))) (let ((?v_114 (not ?v_112)) (?v_110 (= x_19 x_94)) (?v_118 (not (= x_93 x_90))) (?v_113 (= x_111 1)) (?v_42 (= x_109 10)) (?v_44 (= x_118 1)) (?v_50 (= x_22 x_20)) (?v_51 (= x_119 x_104)) (?v_55 (= x_107 x_104)) (?v_52 (= x_120 x_105)) (?v_54 (= x_121 x_106)) (?v_59 (= x_21 9)) (?v_60 (= x_120 1)) (?v_61 (not (= x_106 1))) (?v_62 (not (= x_106 0))) (?v_63 (= x_106 3)) (?v_64 (= x_106 2)) (?v_53 (= x_23 x_21)) (?v_65 (= x_122 x_107)) (?v_40 (= x_123 x_108)) (?v_66 (= x_118 x_103)) (?v_41 (= x_124 x_109)) (?v_67 (= x_125 x_110)) (?v_68 (< x_109 9)) (?v_70 (= x_111 2)) (?v_69 (= x_107 x_110)) (?v_74 (= x_104 x_107))) (let ((?v_76 (not ?v_74)) (?v_72 (= x_21 x_109)) (?v_80 (not (= x_108 x_105))) (?v_75 (= x_126 1)) (?v_2 (= x_124 10)) (?v_4 (= x_133 1)) (?v_8 (= x_24 x_22)) (?v_9 (= x_134 x_119)) (?v_13 (= x_122 x_119)) (?v_10 (= x_135 x_120)) (?v_12 (= x_136 x_121)) (?v_18 (= x_23 9)) (?v_19 (= x_135 1)) (?v_20 (not (= x_121 1))) (?v_21 (not (= x_121 0))) (?v_22 (= x_121 3)) (?v_23 (= x_121 2)) (?v_11 (= x_25 x_23)) (?v_24 (= x_137 x_122)) (?v_0 (= x_138 x_123)) (?v_25 (= x_133 x_118)) (?v_1 (= x_139 x_124)) (?v_26 (= x_140 x_125)) (?v_27 (< x_124 9)) (?v_29 (= x_126 2)) (?v_28 (= x_122 x_125)) (?v_33 (= x_119 x_122))) (let ((?v_34 (not ?v_33)) (?v_31 (= x_23 x_124)) (?v_38 (not (= x_123 x_120))) (?v_35 (= x_141 1)) (?v_286 (not (< x_28 0))) (?v_247 (not (< x_45 0))) (?v_209 (not (< x_60 0))) (?v_171 (not (< x_75 0))) (?v_133 (not (< x_90 0))) (?v_95 (not (< x_105 0))) (?v_57 (not (< x_120 0))) (?v_16 (not (< x_135 0))) (?v_3 (= x_133 0)) (?v_5 (= x_139 1)) (?v_77 (= x_126 0)) (?v_43 (= x_118 0)) (?v_45 (= x_124 1)) (?v_115 (= x_111 0)) (?v_85 (= x_103 0)) (?v_87 (= x_109 1)) (?v_153 (= x_96 0)) (?v_123 (= x_88 0)) (?v_125 (= x_94 1)) (?v_191 (= x_81 0)) (?v_161 (= x_73 0)) (?v_163 (= x_79 1)) (?v_229 (= x_66 0)) (?v_199 (= x_58 0)) (?v_201 (= x_64 1)) (?v_267 (= x_51 0)) (?v_237 (= x_43 0)) (?v_239 (= x_49 1)) (?v_306 (= x_36 0)) (?v_276 (= x_26 0)) (?v_278 (= x_34 1)) (?v_311 (= x_9 1)) (?v_36 (not ?v_27)) (?v_37 (and ?v_27 (not ?v_28))) (?v_32 (and ?v_27 ?v_28))) (let ((?v_30 (and ?v_32 ?v_34))) (let ((?v_39 (and ?v_30 ?v_31)) (?v_78 (not ?v_68)) (?v_79 (and ?v_68 (not ?v_69))) (?v_73 (and ?v_68 ?v_69))) (let ((?v_71 (and ?v_73 ?v_76))) (let ((?v_81 (and ?v_71 ?v_72)) (?v_116 (not ?v_106)) (?v_117 (and ?v_106 (not ?v_107))) (?v_111 (and ?v_106 ?v_107))) (let ((?v_109 (and ?v_111 ?v_114))) (let ((?v_119 (and ?v_109 ?v_110)) (?v_154 (not ?v_144)) (?v_155 (and ?v_144 (not ?v_145))) (?v_149 (and ?v_144 ?v_145))) (let ((?v_147 (and ?v_149 ?v_152))) (let ((?v_157 (and ?v_147 ?v_148)) (?v_192 (not ?v_182)) (?v_193 (and ?v_182 (not ?v_183))) (?v_187 (and ?v_182 ?v_183))) (let ((?v_185 (and ?v_187 ?v_190))) (let ((?v_195 (and ?v_185 ?v_186)) (?v_230 (not ?v_220)) (?v_231 (and ?v_220 (not ?v_221))) (?v_225 (and ?v_220 ?v_221))) (let ((?v_223 (and ?v_225 ?v_228))) (let ((?v_233 (and ?v_223 ?v_224)) (?v_268 (not ?v_258)) (?v_269 (and ?v_258 (not ?v_259))) (?v_263 (and ?v_258 ?v_259))) (let ((?v_261 (and ?v_263 ?v_266))) (let ((?v_271 (and ?v_261 ?v_262)) (?v_299 (= 0 x_2)) (?v_294 (= x_31 0)) (?v_285 (= 0 x_5)) (?v_307 (not ?v_298))) (let ((?v_308 (and ?v_298 (not ?v_299))) (?v_302 (and ?v_298 ?v_299)) (?v_303 (= x_5 0))) (let ((?v_305 (not ?v_303))) (let ((?v_300 (and ?v_302 ?v_305))) (let ((?v_310 (and ?v_300 ?v_301)) (?v_7 (+ x_3 1)) (?v_14 (- 16 x_6)) (?v_6 (- 1 x_3))) (let ((?v_46 (* ?v_6 23)) (?v_47 (* ?v_7 23)) (?v_48 (* ?v_6 16)) (?v_49 (* ?v_7 16))) (and (and (and (and (and (and (and (and (and (and (and (and (and (and (and (and (and (and (and (and (and (and (and (and (and (and (and (and (and (and (and (and (and (and (and (and (and (and (and (and (and (and (and (and (and (and (and (and (and (and (and (and (and (and (and (and (and (and (and (and (and (and (and (and (and (and (and (and (and (and (and (and (and (and (and (and (and (and (and (and (and (and (and (and (and (and (and (and (and (and (and (and (and (and (and (and (and (and (and (and (and (and (and (and (and (and (and (and (and (and (and (and (and (and (and (and (and (and (and (and (and (and (and (and (and (and (and (and (and (and (and (and (and (and (and (and (and (and (and (and (and (and (and (and (and (and (and (and (and (and (and (and (and (and (and (and (<= x_136 3) (>= x_136 0)) (<= x_133 3)) (>= x_133 0)) (<= x_121 3)) (>= x_121 0)) (<= x_118 3)) (>= x_118 0)) (<= x_106 3)) (>= x_106 0)) (<= x_103 3)) (>= x_103 0)) (<= x_91 3)) (>= x_91 0)) (<= x_88 3)) (>= x_88 0)) (<= x_76 3)) (>= x_76 0)) (<= x_73 3)) (>= x_73 0)) (<= x_61 3)) (>= x_61 0)) (<= x_58 3)) (>= x_58 0)) (<= x_46 3)) (>= x_46 0)) (<= x_43 3)) (>= x_43 0)) (<= x_30 3)) (>= x_30 0)) (<= x_26 3)) (>= x_26 0)) (<= x_7 3)) (>= x_7 0)) (<= x_0 3)) (>= x_0 0)) (not (< x_1 1))) (<= x_1 10)) (>= x_3 0)) (< x_3 (/ 3 151))) (>= x_6 0)) (< x_6 4)) (not (< x_8 0))) (<= x_8 9)) (not (< x_9 0))) (<= x_9 2)) (not (< x_11 0))) (<= x_11 9)) (not (< x_13 0))) (<= x_13 9)) (not (< x_15 0))) (<= x_15 9)) (not (< x_17 0))) (<= x_17 9)) (not (< x_19 0))) (<= x_19 9)) (not (< x_21 0))) (<= x_21 9)) (not (< x_23 0))) (<= x_23 9)) (not (< x_25 0))) (<= x_25 9)) ?v_286) (<= x_28 1)) (not (< x_29 0))) (<= x_29 1)) (not (< x_32 0))) (<= x_32 1)) (not (< x_33 0))) (<= x_33 1)) (not (< x_34 1))) (<= x_34 10)) (not (< x_36 0))) (<= x_36 2)) ?v_247) (<= x_45 1)) (not (< x_48 0))) (<= x_48 1)) (not (< x_49 1))) (<= x_49 10)) (not (< x_51 0))) (<= x_51 2)) ?v_209) (<= x_60 1)) (not (< x_63 0))) (<= x_63 1)) (not (< x_64 1))) (<= x_64 10)) (not (< x_66 0))) (<= x_66 2)) ?v_171) (<= x_75 1)) (not (< x_78 0))) (<= x_78 1)) (not (< x_79 1))) (<= x_79 10)) (not (< x_81 0))) (<= x_81 2)) ?v_133) (<= x_90 1)) (not (< x_93 0))) (<= x_93 1)) (not (< x_94 1))) (<= x_94 10)) (not (< x_96 0))) (<= x_96 2)) ?v_95) (<= x_105 1)) (not (< x_108 0))) (<= x_108 1)) (not (< x_109 1))) (<= x_109 10)) (not (< x_111 0))) (<= x_111 2)) ?v_57) (<= x_120 1)) (not (< x_123 0))) (<= x_123 1)) (not (< x_124 1))) (<= x_124 10)) (not (< x_126 0))) (<= x_126 2)) ?v_16) (<= x_135 1)) (not (< x_138 0))) (<= x_138 1)) (not (< x_139 1))) (<= x_139 10)) (not (< x_141 0))) (<= x_141 2)) (= x_0 1)) ?v_272) (>= x_2 0)) (< x_2 ?v_7)) ?v_284) (>= x_5 0)) (<= x_5 ?v_14)) ?v_275) ?v_288) ?v_297) (or (or (and (and (and (and (and (and (and (and (and (and (= x_142 0) (or (and (and (and (= x_143 0) (< x_122 x_125)) (<= x_125 x_119)) (= x_137 x_125)) (and (and (and (= x_143 1) (< x_122 x_119)) (<= x_119 x_125)) (= x_137 x_119)))) ?v_0) ?v_25) ?v_1) ?v_26) ?v_8) ?v_9) ?v_10) ?v_11) ?v_12) (and (and (and (and (and (and (and (and (and (= x_142 1) (or (or (and (and (and (and (and (= x_144 0) ?v_2) ?v_21) ?v_4) ?v_0) ?v_1) (and (and (and (and (and (= x_144 1) ?v_2) ?v_20) ?v_3) ?v_5) ?v_0)) (and (and (and (and (= x_144 2) (not ?v_2)) (ite (or ?v_23 ?v_22) (or ?v_3 ?v_4) (= x_133 x_121))) (= x_139 (+ x_124 1))) (= x_138 (ite ?v_4 1 0))))) ?v_28) (ite (= x_139 10) (and (<= (+ x_122 ?v_6) x_140) (<= x_140 (+ (+ x_122 x_3) 1))) (ite ?v_5 (and (<= (+ x_122 ?v_46) x_140) (<= x_140 (+ x_122 ?v_47))) (and (<= (+ x_122 ?v_48) x_140) (<= x_140 (+ x_122 ?v_49)))))) ?v_24) ?v_8) ?v_9) ?v_10) ?v_11) ?v_12)) (and (and (and (and (and (and (and (and (= x_142 2) (or (and (and (and (and (= x_145 0) ?v_13) ?v_15) (= x_134 (+ x_122 x_6))) x_24) (and (and (and (and (= x_145 1) ?v_13) x_22) (= x_134 (+ x_122 ?v_14))) (not x_24)))) (or (and (and (and (= x_146 0) ?v_17) (or (= x_135 0) ?v_19)) ?v_16) (and (and (= x_146 1) (not ?v_17)) ?v_10))) (or (or (or (and (and (and (and (= x_147 0) ?v_15) ?v_18) (= x_25 9)) ?v_12) (and (and (and (and (= x_147 1) ?v_15) ?v_18) (= x_136 2)) (= x_25 0))) (and (and (and (and (= x_147 2) ?v_15) (< x_23 9)) (= x_136 (ite (or ?v_19 (= x_23 8)) (ite ?v_20 3 x_121) (ite ?v_21 2 x_121)))) (= x_25 (+ x_23 1)))) (and (and (and (= x_147 3) x_22) (= x_136 (ite ?v_22 1 (ite ?v_23 0 x_121)))) ?v_11))) ?v_24) ?v_0) ?v_25) ?v_1) ?v_26))) (or (or (or (or (and (and ?v_29 (or (or ?v_36 ?v_37) ?v_39)) (= x_141 2)) (and (and ?v_29 (or (and ?v_30 (not ?v_31)) (and ?v_32 ?v_33))) ?v_35)) (and (and (and (and (and ?v_29 ?v_27) ?v_28) ?v_34) ?v_31) (= x_141 0))) (and ?v_75 ?v_35)) (and (and ?v_77 (or (or (and ?v_36 ?v_38) (and ?v_37 ?v_38)) (and ?v_39 ?v_38))) ?v_35))) (or (or (and (and (and (and (and (and (and (and (and (and (= x_127 0) (or (and (and (and (= x_128 0) (< x_107 x_110)) (<= x_110 x_104)) (= x_122 x_110)) (and (and (and (= x_128 1) (< x_107 x_104)) (<= x_104 x_110)) (= x_122 x_104)))) ?v_40) ?v_66) ?v_41) ?v_67) ?v_50) ?v_51) ?v_52) ?v_53) ?v_54) (and (and (and (and (and (and (and (and (and (= x_127 1) (or (or (and (and (and (and (and (= x_129 0) ?v_42) ?v_62) ?v_44) ?v_40) ?v_41) (and (and (and (and (and (= x_129 1) ?v_42) ?v_61) ?v_43) ?v_45) ?v_40)) (and (and (and (and (= x_129 2) (not ?v_42)) (ite (or ?v_64 ?v_63) (or ?v_43 ?v_44) (= x_118 x_106))) (= x_124 (+ x_109 1))) (= x_123 (ite ?v_44 1 0))))) ?v_69) (ite ?v_2 (and (<= (+ x_107 ?v_6) x_125) (<= x_125 (+ (+ x_107 x_3) 1))) (ite ?v_45 (and (<= (+ x_107 ?v_46) x_125) (<= x_125 (+ x_107 ?v_47))) (and (<= (+ x_107 ?v_48) x_125) (<= x_125 (+ x_107 ?v_49)))))) ?v_65) ?v_50) ?v_51) ?v_52) ?v_53) ?v_54)) (and (and (and (and (and (and (and (and (= x_127 2) (or (and (and (and (and (= x_130 0) ?v_55) ?v_56) (= x_119 (+ x_107 x_6))) x_22) (and (and (and (and (= x_130 1) ?v_55) x_20) (= x_119 (+ x_107 ?v_14))) ?v_15))) (or (and (and (and (= x_131 0) ?v_58) (or (= x_120 0) ?v_60)) ?v_57) (and (and (= x_131 1) (not ?v_58)) ?v_52))) (or (or (or (and (and (and (and (= x_132 0) ?v_56) ?v_59) ?v_18) ?v_54) (and (and (and (and (= x_132 1) ?v_56) ?v_59) ?v_23) (= x_23 0))) (and (and (and (and (= x_132 2) ?v_56) (< x_21 9)) (= x_121 (ite (or ?v_60 (= x_21 8)) (ite ?v_61 3 x_106) (ite ?v_62 2 x_106)))) (= x_23 (+ x_21 1)))) (and (and (and (= x_132 3) x_20) (= x_121 (ite ?v_63 1 (ite ?v_64 0 x_106)))) ?v_53))) ?v_65) ?v_40) ?v_66) ?v_41) ?v_67))) (or (or (or (or (and (and ?v_70 (or (or ?v_78 ?v_79) ?v_81)) ?v_29) (and (and ?v_70 (or (and ?v_71 (not ?v_72)) (and ?v_73 ?v_74))) ?v_75)) (and (and (and (and (and ?v_70 ?v_68) ?v_69) ?v_76) ?v_72) ?v_77)) (and ?v_113 ?v_75)) (and (and ?v_115 (or (or (and ?v_78 ?v_80) (and ?v_79 ?v_80)) (and ?v_81 ?v_80))) ?v_75))) (or (or (and (and (and (and (and (and (and (and (and (and (= x_112 0) (or (and (and (and (= x_113 0) (< x_92 x_95)) (<= x_95 x_89)) (= x_107 x_95)) (and (and (and (= x_113 1) (< x_92 x_89)) (<= x_89 x_95)) (= x_107 x_89)))) ?v_82) ?v_104) ?v_83) ?v_105) ?v_88) ?v_89) ?v_90) ?v_91) ?v_92) (and (and (and (and (and (and (and (and (and (= x_112 1) (or (or (and (and (and (and (and (= x_114 0) ?v_84) ?v_100) ?v_86) ?v_82) ?v_83) (and (and (and (and (and (= x_114 1) ?v_84) ?v_99) ?v_85) ?v_87) ?v_82)) (and (and (and (and (= x_114 2) (not ?v_84)) (ite (or ?v_102 ?v_101) (or ?v_85 ?v_86) (= x_103 x_91))) (= x_109 (+ x_94 1))) (= x_108 (ite ?v_86 1 0))))) ?v_107) (ite ?v_42 (and (<= (+ x_92 ?v_6) x_110) (<= x_110 (+ (+ x_92 x_3) 1))) (ite ?v_87 (and (<= (+ x_92 ?v_46) x_110) (<= x_110 (+ x_92 ?v_47))) (and (<= (+ x_92 ?v_48) x_110) (<= x_110 (+ x_92 ?v_49)))))) ?v_103) ?v_88) ?v_89) ?v_90) ?v_91) ?v_92)) (and (and (and (and (and (and (and (and (= x_112 2) (or (and (and (and (and (= x_115 0) ?v_93) ?v_94) (= x_104 (+ x_92 x_6))) x_20) (and (and (and (and (= x_115 1) ?v_93) x_18) (= x_104 (+ x_92 ?v_14))) ?v_56))) (or (and (and (and (= x_116 0) ?v_96) (or (= x_105 0) ?v_98)) ?v_95) (and (and (= x_116 1) (not ?v_96)) ?v_90))) (or (or (or (and (and (and (and (= x_117 0) ?v_94) ?v_97) ?v_59) ?v_92) (and (and (and (and (= x_117 1) ?v_94) ?v_97) ?v_64) (= x_21 0))) (and (and (and (and (= x_117 2) ?v_94) (< x_19 9)) (= x_106 (ite (or ?v_98 (= x_19 8)) (ite ?v_99 3 x_91) (ite ?v_100 2 x_91)))) (= x_21 (+ x_19 1)))) (and (and (and (= x_117 3) x_18) (= x_106 (ite ?v_101 1 (ite ?v_102 0 x_91)))) ?v_91))) ?v_103) ?v_82) ?v_104) ?v_83) ?v_105))) (or (or (or (or (and (and ?v_108 (or (or ?v_116 ?v_117) ?v_119)) ?v_70) (and (and ?v_108 (or (and ?v_109 (not ?v_110)) (and ?v_111 ?v_112))) ?v_113)) (and (and (and (and (and ?v_108 ?v_106) ?v_107) ?v_114) ?v_110) ?v_115)) (and ?v_151 ?v_113)) (and (and ?v_153 (or (or (and ?v_116 ?v_118) (and ?v_117 ?v_118)) (and ?v_119 ?v_118))) ?v_113))) (or (or (and (and (and (and (and (and (and (and (and (and (= x_97 0) (or (and (and (and (= x_98 0) (< x_77 x_80)) (<= x_80 x_74)) (= x_92 x_80)) (and (and (and (= x_98 1) (< x_77 x_74)) (<= x_74 x_80)) (= x_92 x_74)))) ?v_120) ?v_142) ?v_121) ?v_143) ?v_126) ?v_127) ?v_128) ?v_129) ?v_130) (and (and (and (and (and (and (and (and (and (= x_97 1) (or (or (and (and (and (and (and (= x_99 0) ?v_122) ?v_138) ?v_124) ?v_120) ?v_121) (and (and (and (and (and (= x_99 1) ?v_122) ?v_137) ?v_123) ?v_125) ?v_120)) (and (and (and (and (= x_99 2) (not ?v_122)) (ite (or ?v_140 ?v_139) (or ?v_123 ?v_124) (= x_88 x_76))) (= x_94 (+ x_79 1))) (= x_93 (ite ?v_124 1 0))))) ?v_145) (ite ?v_84 (and (<= (+ x_77 ?v_6) x_95) (<= x_95 (+ (+ x_77 x_3) 1))) (ite ?v_125 (and (<= (+ x_77 ?v_46) x_95) (<= x_95 (+ x_77 ?v_47))) (and (<= (+ x_77 ?v_48) x_95) (<= x_95 (+ x_77 ?v_49)))))) ?v_141) ?v_126) ?v_127) ?v_128) ?v_129) ?v_130)) (and (and (and (and (and (and (and (and (= x_97 2) (or (and (and (and (and (= x_100 0) ?v_131) ?v_132) (= x_89 (+ x_77 x_6))) x_18) (and (and (and (and (= x_100 1) ?v_131) x_16) (= x_89 (+ x_77 ?v_14))) ?v_94))) (or (and (and (and (= x_101 0) ?v_134) (or (= x_90 0) ?v_136)) ?v_133) (and (and (= x_101 1) (not ?v_134)) ?v_128))) (or (or (or (and (and (and (and (= x_102 0) ?v_132) ?v_135) ?v_97) ?v_130) (and (and (and (and (= x_102 1) ?v_132) ?v_135) ?v_102) (= x_19 0))) (and (and (and (and (= x_102 2) ?v_132) (< x_17 9)) (= x_91 (ite (or ?v_136 (= x_17 8)) (ite ?v_137 3 x_76) (ite ?v_138 2 x_76)))) (= x_19 (+ x_17 1)))) (and (and (and (= x_102 3) x_16) (= x_91 (ite ?v_139 1 (ite ?v_140 0 x_76)))) ?v_129))) ?v_141) ?v_120) ?v_142) ?v_121) ?v_143))) (or (or (or (or (and (and ?v_146 (or (or ?v_154 ?v_155) ?v_157)) ?v_108) (and (and ?v_146 (or (and ?v_147 (not ?v_148)) (and ?v_149 ?v_150))) ?v_151)) (and (and (and (and (and ?v_146 ?v_144) ?v_145) ?v_152) ?v_148) ?v_153)) (and ?v_189 ?v_151)) (and (and ?v_191 (or (or (and ?v_154 ?v_156) (and ?v_155 ?v_156)) (and ?v_157 ?v_156))) ?v_151))) (or (or (and (and (and (and (and (and (and (and (and (and (= x_82 0) (or (and (and (and (= x_83 0) (< x_62 x_65)) (<= x_65 x_59)) (= x_77 x_65)) (and (and (and (= x_83 1) (< x_62 x_59)) (<= x_59 x_65)) (= x_77 x_59)))) ?v_158) ?v_180) ?v_159) ?v_181) ?v_164) ?v_165) ?v_166) ?v_167) ?v_168) (and (and (and (and (and (and (and (and (and (= x_82 1) (or (or (and (and (and (and (and (= x_84 0) ?v_160) ?v_176) ?v_162) ?v_158) ?v_159) (and (and (and (and (and (= x_84 1) ?v_160) ?v_175) ?v_161) ?v_163) ?v_158)) (and (and (and (and (= x_84 2) (not ?v_160)) (ite (or ?v_178 ?v_177) (or ?v_161 ?v_162) (= x_73 x_61))) (= x_79 (+ x_64 1))) (= x_78 (ite ?v_162 1 0))))) ?v_183) (ite ?v_122 (and (<= (+ x_62 ?v_6) x_80) (<= x_80 (+ (+ x_62 x_3) 1))) (ite ?v_163 (and (<= (+ x_62 ?v_46) x_80) (<= x_80 (+ x_62 ?v_47))) (and (<= (+ x_62 ?v_48) x_80) (<= x_80 (+ x_62 ?v_49)))))) ?v_179) ?v_164) ?v_165) ?v_166) ?v_167) ?v_168)) (and (and (and (and (and (and (and (and (= x_82 2) (or (and (and (and (and (= x_85 0) ?v_169) ?v_170) (= x_74 (+ x_62 x_6))) x_16) (and (and (and (and (= x_85 1) ?v_169) x_14) (= x_74 (+ x_62 ?v_14))) ?v_132))) (or (and (and (and (= x_86 0) ?v_172) (or (= x_75 0) ?v_174)) ?v_171) (and (and (= x_86 1) (not ?v_172)) ?v_166))) (or (or (or (and (and (and (and (= x_87 0) ?v_170) ?v_173) ?v_135) ?v_168) (and (and (and (and (= x_87 1) ?v_170) ?v_173) ?v_140) (= x_17 0))) (and (and (and (and (= x_87 2) ?v_170) (< x_15 9)) (= x_76 (ite (or ?v_174 (= x_15 8)) (ite ?v_175 3 x_61) (ite ?v_176 2 x_61)))) (= x_17 (+ x_15 1)))) (and (and (and (= x_87 3) x_14) (= x_76 (ite ?v_177 1 (ite ?v_178 0 x_61)))) ?v_167))) ?v_179) ?v_158) ?v_180) ?v_159) ?v_181))) (or (or (or (or (and (and ?v_184 (or (or ?v_192 ?v_193) ?v_195)) ?v_146) (and (and ?v_184 (or (and ?v_185 (not ?v_186)) (and ?v_187 ?v_188))) ?v_189)) (and (and (and (and (and ?v_184 ?v_182) ?v_183) ?v_190) ?v_186) ?v_191)) (and ?v_227 ?v_189)) (and (and ?v_229 (or (or (and ?v_192 ?v_194) (and ?v_193 ?v_194)) (and ?v_195 ?v_194))) ?v_189))) (or (or (and (and (and (and (and (and (and (and (and (and (= x_67 0) (or (and (and (and (= x_68 0) (< x_47 x_50)) (<= x_50 x_44)) (= x_62 x_50)) (and (and (and (= x_68 1) (< x_47 x_44)) (<= x_44 x_50)) (= x_62 x_44)))) ?v_196) ?v_218) ?v_197) ?v_219) ?v_202) ?v_203) ?v_204) ?v_205) ?v_206) (and (and (and (and (and (and (and (and (and (= x_67 1) (or (or (and (and (and (and (and (= x_69 0) ?v_198) ?v_214) ?v_200) ?v_196) ?v_197) (and (and (and (and (and (= x_69 1) ?v_198) ?v_213) ?v_199) ?v_201) ?v_196)) (and (and (and (and (= x_69 2) (not ?v_198)) (ite (or ?v_216 ?v_215) (or ?v_199 ?v_200) (= x_58 x_46))) (= x_64 (+ x_49 1))) (= x_63 (ite ?v_200 1 0))))) ?v_221) (ite ?v_160 (and (<= (+ x_47 ?v_6) x_65) (<= x_65 (+ (+ x_47 x_3) 1))) (ite ?v_201 (and (<= (+ x_47 ?v_46) x_65) (<= x_65 (+ x_47 ?v_47))) (and (<= (+ x_47 ?v_48) x_65) (<= x_65 (+ x_47 ?v_49)))))) ?v_217) ?v_202) ?v_203) ?v_204) ?v_205) ?v_206)) (and (and (and (and (and (and (and (and (= x_67 2) (or (and (and (and (and (= x_70 0) ?v_207) ?v_208) (= x_59 (+ x_47 x_6))) x_14) (and (and (and (and (= x_70 1) ?v_207) x_12) (= x_59 (+ x_47 ?v_14))) ?v_170))) (or (and (and (and (= x_71 0) ?v_210) (or (= x_60 0) ?v_212)) ?v_209) (and (and (= x_71 1) (not ?v_210)) ?v_204))) (or (or (or (and (and (and (and (= x_72 0) ?v_208) ?v_211) ?v_173) ?v_206) (and (and (and (and (= x_72 1) ?v_208) ?v_211) ?v_178) (= x_15 0))) (and (and (and (and (= x_72 2) ?v_208) (< x_13 9)) (= x_61 (ite (or ?v_212 (= x_13 8)) (ite ?v_213 3 x_46) (ite ?v_214 2 x_46)))) (= x_15 (+ x_13 1)))) (and (and (and (= x_72 3) x_12) (= x_61 (ite ?v_215 1 (ite ?v_216 0 x_46)))) ?v_205))) ?v_217) ?v_196) ?v_218) ?v_197) ?v_219))) (or (or (or (or (and (and ?v_222 (or (or ?v_230 ?v_231) ?v_233)) ?v_184) (and (and ?v_222 (or (and ?v_223 (not ?v_224)) (and ?v_225 ?v_226))) ?v_227)) (and (and (and (and (and ?v_222 ?v_220) ?v_221) ?v_228) ?v_224) ?v_229)) (and ?v_265 ?v_227)) (and (and ?v_267 (or (or (and ?v_230 ?v_232) (and ?v_231 ?v_232)) (and ?v_233 ?v_232))) ?v_227))) (or (or (and (and (and (and (and (and (and (and (and (and (= x_52 0) (or (and (and (and (= x_53 0) (< x_31 x_35)) (<= x_35 x_27)) (= x_47 x_35)) (and (and (and (= x_53 1) (< x_31 x_27)) (<= x_27 x_35)) (= x_47 x_27)))) ?v_234) ?v_256) ?v_235) ?v_257) ?v_240) ?v_241) ?v_242) ?v_243) ?v_244) (and (and (and (and (and (and (and (and (and (= x_52 1) (or (or (and (and (and (and (and (= x_54 0) ?v_236) ?v_252) ?v_238) ?v_234) ?v_235) (and (and (and (and (and (= x_54 1) ?v_236) ?v_251) ?v_237) ?v_239) ?v_234)) (and (and (and (and (= x_54 2) (not ?v_236)) (ite (or ?v_254 ?v_253) (or ?v_237 ?v_238) (= x_43 x_30))) (= x_49 (+ x_34 1))) (= x_48 (ite ?v_238 1 0))))) ?v_259) (ite ?v_198 (and (<= (+ x_31 ?v_6) x_50) (<= x_50 (+ (+ x_31 x_3) 1))) (ite ?v_239 (and (<= (+ x_31 ?v_46) x_50) (<= x_50 (+ x_31 ?v_47))) (and (<= (+ x_31 ?v_48) x_50) (<= x_50 (+ x_31 ?v_49)))))) ?v_255) ?v_240) ?v_241) ?v_242) ?v_243) ?v_244)) (and (and (and (and (and (and (and (and (= x_52 2) (or (and (and (and (and (= x_55 0) ?v_245) ?v_246) (= x_44 (+ x_31 x_6))) x_12) (and (and (and (and (= x_55 1) ?v_245) x_10) (= x_44 (+ x_31 ?v_14))) ?v_208))) (or (and (and (and (= x_56 0) ?v_248) (or (= x_45 0) ?v_250)) ?v_247) (and (and (= x_56 1) (not ?v_248)) ?v_242))) (or (or (or (and (and (and (and (= x_57 0) ?v_246) ?v_249) ?v_211) ?v_244) (and (and (and (and (= x_57 1) ?v_246) ?v_249) ?v_216) (= x_13 0))) (and (and (and (and (= x_57 2) ?v_246) (< x_11 9)) (= x_46 (ite (or ?v_250 (= x_11 8)) (ite ?v_251 3 x_30) (ite ?v_252 2 x_30)))) (= x_13 (+ x_11 1)))) (and (and (and (= x_57 3) x_10) (= x_46 (ite ?v_253 1 (ite ?v_254 0 x_30)))) ?v_243))) ?v_255) ?v_234) ?v_256) ?v_235) ?v_257))) (or (or (or (or (and (and ?v_260 (or (or ?v_268 ?v_269) ?v_271)) ?v_222) (and (and ?v_260 (or (and ?v_261 (not ?v_262)) (and ?v_263 ?v_264))) ?v_265)) (and (and (and (and (and ?v_260 ?v_258) ?v_259) ?v_266) ?v_262) ?v_267)) (and ?v_304 ?v_265)) (and (and ?v_306 (or (or (and ?v_268 ?v_270) (and ?v_269 ?v_270)) (and ?v_271 ?v_270))) ?v_265))) (or (or (and (and (and (and (and (and (and (and (and (and (= x_37 0) (or (and (and (and (= x_38 0) (> x_2 0)) (<= x_2 x_5)) (= x_31 x_2)) (and (and (and (= x_38 1) (> x_5 0)) (<= x_5 x_2)) (= x_31 x_5)))) ?v_273) ?v_295) ?v_274) ?v_296) ?v_279) ?v_280) ?v_281) ?v_282) ?v_283) (and (and (and (and (and (and (and (and (and (= x_37 1) (or (or (and (and (and (and (and (= x_39 0) ?v_272) ?v_291) ?v_277) ?v_273) ?v_274) (and (and (and (and (and (= x_39 1) ?v_272) ?v_290) ?v_276) ?v_278) ?v_273)) (and (and (and (and (= x_39 2) (not ?v_272)) (ite (or ?v_293 ?v_292) (or ?v_276 ?v_277) (= x_26 x_7))) (= x_34 (+ x_1 1))) (= x_32 (ite ?v_277 1 0))))) ?v_299) (ite ?v_236 (and (<= (+ 0 ?v_6) x_35) (<= x_35 (+ (+ 0 x_3) 1))) (ite ?v_278 (and (<= (+ 0 ?v_46) x_35) (<= x_35 (+ 0 ?v_47))) (and (<= (+ 0 ?v_48) x_35) (<= x_35 (+ 0 ?v_49)))))) ?v_294) ?v_279) ?v_280) ?v_281) ?v_282) ?v_283)) (and (and (and (and (and (and (and (and (= x_37 2) (or (and (and (and (and (= x_40 0) ?v_285) ?v_284) (= x_27 (+ 0 x_6))) x_10) (and (and (and (and (= x_40 1) ?v_285) x_4) (= x_27 (+ 0 ?v_14))) ?v_246))) (or (and (and (and (= x_41 0) ?v_287) (or (= x_28 0) ?v_289)) ?v_286) (and (and (= x_41 1) (not ?v_287)) ?v_281))) (or (or (or (and (and (and (and (= x_42 0) ?v_284) ?v_288) ?v_249) ?v_283) (and (and (and (and (= x_42 1) ?v_284) ?v_288) ?v_254) (= x_11 0))) (and (and (and (and (= x_42 2) ?v_284) (< x_8 9)) (= x_30 (ite (or ?v_289 (= x_8 8)) (ite ?v_290 3 x_7) (ite ?v_291 2 x_7)))) (= x_11 (+ x_8 1)))) (and (and (and (= x_42 3) x_4) (= x_30 (ite ?v_292 1 (ite ?v_293 0 x_7)))) ?v_282))) ?v_294) ?v_273) ?v_295) ?v_274) ?v_296))) (or (or (or (or (and (and ?v_297 (or (or ?v_307 ?v_308) ?v_310)) ?v_260) (and (and ?v_297 (or (and ?v_300 (not ?v_301)) (and ?v_302 ?v_303))) ?v_304)) (and (and (and (and (and ?v_297 ?v_298) ?v_299) ?v_305) ?v_301) ?v_306)) (and ?v_311 ?v_304)) (and (and (= x_9 0) (or (or (and ?v_307 ?v_309) (and ?v_308 ?v_309)) (and ?v_310 ?v_309))) ?v_304))) (or (or (or (or (or (or (or (or ?v_35 ?v_75) ?v_113) ?v_151) ?v_189) ?v_227) ?v_265) ?v_304) ?v_311)))))))))))))))))))))))))))))))))))))))
(check-sat)
(exit)
